
Gurobi 8.1.0 (win64, Python) logging started 08/07/21 20:21:47

Academic license - for non-commercial use only
Optimize a model with 8400 rows, 8020 columns and 24000 nonzeros
Variable types: 8000 continuous, 20 integer (20 binary)
Coefficient statistics:
  Matrix range     [1e+00, 1e+00]
  Objective range  [5e+01, 3e+03]
  Bounds range     [1e+00, 1e+00]
  RHS range        [1e+00, 1e+00]
Found heuristic solution: objective 89991.000000
Presolve time: 0.09s
Presolved: 8400 rows, 8020 columns, 24000 nonzeros
Variable types: 8000 continuous, 20 integer (20 binary)

Root relaxation: objective 3.496543e+04, 2932 iterations, 0.12 seconds

    Nodes    |    Current Node    |     Objective Bounds      |     Work
 Expl Unexpl |  Obj  Depth IntInf | Incumbent    BestBd   Gap | It/Node Time

     0     0 34965.4286    0   15 89991.0000 34965.4286  61.1%     -    0s
H    0     0                    54660.666667 34965.4286  36.0%     -    0s
H    0     0                    37256.000000 34965.4286  6.15%     -    0s
     0     0 34968.4643    0   15 37256.0000 34968.4643  6.14%     -    0s
     0     0 34969.2044    0   16 37256.0000 34969.2044  6.14%     -    0s
     0     0 34969.2635    0   16 37256.0000 34969.2635  6.14%     -    0s
     0     0 34972.0831    0   16 37256.0000 34972.0831  6.13%     -    0s
     0     0 34973.0334    0   16 37256.0000 34973.0334  6.13%     -    0s
     0     0 34973.0422    0   16 37256.0000 34973.0422  6.13%     -    0s
     0     0 34977.6940    0   15 37256.0000 34977.6940  6.12%     -    0s
     0     0 34979.5826    0   15 37256.0000 34979.5826  6.11%     -    0s
     0     0 34979.5826    0   15 37256.0000 34979.5826  6.11%     -    0s
H    0     0                    35972.000000 34979.5826  2.76%     -    0s
     0     2 34979.5826    0   15 35972.0000 34979.5826  2.76%     -    0s
*   15     9               3    35831.000000 35525.1621  0.85%   491    1s
*   17     9               4    35620.000000 35526.9224  0.26%   451    1s

Cutting planes:
  Gomory: 7

Explored 24 nodes (10849 simplex iterations) in 1.51 seconds
Thread count was 12 (of 12 available processors)

Solution count 6: 35620 35831 35972 ... 89991

Optimal solution found (tolerance 1.00e-04)
Best objective 3.562000000000e+04, best bound 3.562000000000e+04, gap 0.0000%
Optimize a model with 3300 rows, 3010 columns and 9000 nonzeros
Variable types: 3000 continuous, 10 integer (10 binary)
Coefficient statistics:
  Matrix range     [1e+00, 1e+00]
  Objective range  [5e+01, 3e+03]
  Bounds range     [1e+00, 1e+00]
  RHS range        [1e+00, 1e+00]
Presolve time: 0.01s
Presolved: 3300 rows, 3010 columns, 9000 nonzeros
Variable types: 3000 continuous, 10 integer (10 binary)

Root relaxation: objective 3.032529e+04, 1297 iterations, 0.02 seconds

    Nodes    |    Current Node    |     Objective Bounds      |     Work
 Expl Unexpl |  Obj  Depth IntInf | Incumbent    BestBd   Gap | It/Node Time

     0     0 30325.2857    0   10          - 30325.2857      -     -    0s
H    0     0                    41473.000000 30325.2857  26.9%     -    0s
H    0     0                    30432.000000 30325.2857  0.35%     -    0s
     0     0 30334.3333    0   10 30432.0000 30334.3333  0.32%     -    0s
     0     0 30336.1837    0   10 30432.0000 30336.1837  0.31%     -    0s
     0     0 30347.0794    0   10 30432.0000 30347.0794  0.28%     -    0s
     0     0 30347.1429    0   10 30432.0000 30347.1429  0.28%     -    0s
     0     0 30351.7582    0   10 30432.0000 30351.7582  0.26%     -    0s
     0     0 30351.7582    0   10 30432.0000 30351.7582  0.26%     -    0s
     0     0 30351.8372    0   10 30432.0000 30351.8372  0.26%     -    0s
     0     0 30351.8736    0   10 30432.0000 30351.8736  0.26%     -    0s
     0     0 30351.8901    0   10 30432.0000 30351.8901  0.26%     -    0s
     0     0     cutoff    0      30432.0000 30432.0000  0.00%     -    0s

Cutting planes:
  Gomory: 5
  MIR: 4

Explored 1 nodes (1380 simplex iterations) in 0.18 seconds
Thread count was 12 (of 12 available processors)

Solution count 2: 30432 41473 

Optimal solution found (tolerance 1.00e-04)
Best objective 3.043200000000e+04, best bound 3.043200000000e+04, gap 0.0000%
Changed value of parameter lazyConstraints to 1
   Prev: 0  Min: 0  Max: 1  Default: 0
Changed value of parameter lazyConstraints to 1
   Prev: 0  Min: 0  Max: 1  Default: 0

Gurobi 8.1.0 (win64, Python) logging started 08/07/21 20:23:28

Academic license - for non-commercial use only
Optimize a model with 3300 rows, 3010 columns and 9000 nonzeros
Variable types: 3000 continuous, 10 integer (10 binary)
Coefficient statistics:
  Matrix range     [1e+00, 1e+00]
  Objective range  [5e+01, 3e+03]
  Bounds range     [1e+00, 1e+00]
  RHS range        [1e+00, 1e+00]
Presolve time: 0.01s
Presolved: 3300 rows, 3010 columns, 9000 nonzeros
Variable types: 3000 continuous, 10 integer (10 binary)

Root relaxation: objective 2.876550e+04, 1077 iterations, 0.01 seconds

    Nodes    |    Current Node    |     Objective Bounds      |     Work
 Expl Unexpl |  Obj  Depth IntInf | Incumbent    BestBd   Gap | It/Node Time

     0     0 28765.5000    0    7          - 28765.5000      -     -    0s
H    0     0                    31343.000000 28765.5000  8.22%     -    0s
     0     0 28772.5000    0    7 31343.0000 28772.5000  8.20%     -    0s
     0     0 28779.0000    0    7 31343.0000 28779.0000  8.18%     -    0s
H    0     0                    30876.000000 28779.0000  6.79%     -    0s
     0     0 28786.0000    0    7 30876.0000 28786.0000  6.77%     -    0s
     0     0 28787.5000    0    7 30876.0000 28787.5000  6.76%     -    0s
     0     0 28787.5000    0    7 30876.0000 28787.5000  6.76%     -    0s
H    0     0                    29062.000000 28787.5000  0.94%     -    0s
     0     0 28787.5000    0    7 29062.0000 28787.5000  0.94%     -    0s
     0     0 28792.5000    0    7 29062.0000 28792.5000  0.93%     -    0s
     0     0 28794.0000    0    7 29062.0000 28794.0000  0.92%     -    0s
     0     0 28799.0000    0    7 29062.0000 28799.0000  0.90%     -    0s
     0     0 28865.0000    0    7 29062.0000 28865.0000  0.68%     -    0s
     0     2 28865.0000    0    7 29062.0000 28865.0000  0.68%     -    0s

Cutting planes:
  Gomory: 5
  MIR: 1

Explored 6 nodes (2209 simplex iterations) in 0.24 seconds
Thread count was 12 (of 12 available processors)

Solution count 3: 29062 30876 31343 

Optimal solution found (tolerance 1.00e-04)
Best objective 2.906200000000e+04, best bound 2.906200000000e+04, gap 0.0000%
Changed value of parameter lazyConstraints to 1
   Prev: 0  Min: 0  Max: 1  Default: 0
Changed value of parameter lazyConstraints to 1
   Prev: 0  Min: 0  Max: 1  Default: 0

Gurobi 8.1.0 (win64, Python) logging started 08/14/21 05:35:50

Academic license - for non-commercial use only
Optimize a model with 3300 rows, 3010 columns and 9000 nonzeros
Variable types: 3000 continuous, 10 integer (10 binary)
Coefficient statistics:
  Matrix range     [1e+00, 1e+00]
  Objective range  [5e+01, 3e+03]
  Bounds range     [1e+00, 1e+00]
  RHS range        [1e+00, 1e+00]
Presolve time: 0.04s
Presolved: 3300 rows, 3010 columns, 9000 nonzeros
Variable types: 3000 continuous, 10 integer (10 binary)

Root relaxation: objective 2.984817e+04, 1332 iterations, 0.03 seconds

    Nodes    |    Current Node    |     Objective Bounds      |     Work
 Expl Unexpl |  Obj  Depth IntInf | Incumbent    BestBd   Gap | It/Node Time

     0     0 29848.1667    0    8          - 29848.1667      -     -    0s
H    0     0                    36104.000000 29848.1667  17.3%     -    0s
H    0     0                    30180.000000 29848.1667  1.10%     -    0s
     0     0 29862.3636    0    9 30180.0000 29862.3636  1.05%     -    0s
     0     0 29872.9444    0    9 30180.0000 29872.9444  1.02%     -    0s
     0     0 29873.9722    0    9 30180.0000 29873.9722  1.01%     -    0s
     0     0 29874.2051    0    9 30180.0000 29874.2051  1.01%     -    0s
     0     0 29878.6832    0    9 30180.0000 29878.6832  1.00%     -    0s
     0     0 29879.0406    0    9 30180.0000 29879.0406  1.00%     -    0s
     0     0 29879.1015    0    9 30180.0000 29879.1015  1.00%     -    0s
     0     0 29879.1406    0    9 30180.0000 29879.1406  1.00%     -    0s
     0     0 29879.4030    0    9 30180.0000 29879.4030  1.00%     -    0s
     0     0 29879.4030    0    9 30180.0000 29879.4030  1.00%     -    0s
     0     2 29879.4030    0    9 30180.0000 29879.4030  1.00%     -    0s

Cutting planes:
  Gomory: 6
  MIR: 1

Explored 3 nodes (1816 simplex iterations) in 0.42 seconds
Thread count was 12 (of 12 available processors)

Solution count 2: 30180 36104 

Optimal solution found (tolerance 1.00e-04)
Best objective 3.018000000000e+04, best bound 3.018000000000e+04, gap 0.0000%
Changed value of parameter lazyConstraints to 1
   Prev: 0  Min: 0  Max: 1  Default: 0
Changed value of parameter lazyConstraints to 1
   Prev: 0  Min: 0  Max: 1  Default: 0
